u120_10
150 120 52 56
30 0
34 0
65 0
81 1
90 2
44 1
88 3
51 2
97 4
79 5
58 3
46 4
65 5
40 6
68 6
64 7
34 6
59 7
99 8
82 9
86 10
88 11
52 9
76 12
76 13
50 8
51 10
92 14
59 11
22 1
60 12
69 13
45 14
66 15
50 15
62 16
59 16
90 17
54 17
55 18
92 18
23 7
97 19
73 20
39 19
88 21
34 20
92 22
74 23
90 24
55 21
28 15
45 22
71 23
56 24
45 25
63 25
26 16
20 0
34 20
78 26
26 25
21 26
99 27
50 26
52 28
29 27
52 28
84 29
78 30
84 31
89 32
93 33
83 34
97 35
35 28
29 29
80 36
99 37
86 38
63 30
100 39
87 40
54 31
48 32
72 41
98 42
43 33
81 43
96 44
77 41
92 45
32 29
66 34
82 46
52 35
30 36
52 38
97 47
56 40
44 37
67 43
60 46
79 48
78 49
90 50
38 36
99 51
42 39
97 52
63 48
39 42
69 49
67 53
91 54
38 44
37 45
51 47
98 55
30 50